
  32    1
  10

   0   0   2 2 3 
   6   5   4 10 6 5 4 
   5   3   5 11 10 9 8 7 
   9   6   4 13 12 9 8 
   2   5   3 13 12 8 
   6   8   3 13 12 8 
   4   5   5 24 16 15 13 12 
   3   5   4 24 16 15 14 
  10   7   4 24 16 15 14 
  10   9   3 19 15 14 
   4   9   3 16 15 14 
   7   2   2 19 17 
   2   6   1 14 
   3   4   1 17 
   6   7   1 17 
   3   8   1 17 
  10   9   3 23 20 18 
   1   8   3 31 22 21 
   4   6   2 31 21 
   9   9   5 31 30 29 28 27 
   6  10   3 30 29 26 
   8   4   2 30 25 
   5   7   2 30 25 
   8   3   2 30 25 
   4   6   3 29 28 27 
   3   3   2 28 27 
   7   7   1 32
   8   7   1 32
   4   4   1 32
  10   5   1 32
   9   3   1 32
   0   0   0 
